100
128
10
2
7
32
22
41
1
3
11
14
19
35
56
21
56
16
49
39
22
39
32
40
2
64
32
6
60
20
40
33
49
31
63
29
54
28
1
63
38
6
9
55
2
35
39
2
4
58
5
48
8
2
2
6
15
43
49
40
43
51
41
8
55
5
23
49
21
8
42
56
58
4
46
7
11
55
10
54
16
23
1
39
53
43
45
17
46
44
58
49
50
9
51
40
61
60
46
19
38
49